/* Objective function */
max: +Es,1 +Es,5 +Es,9;

/* Constraints */
-E1,2 +Es,1 = 0;
+E1,2 -E2,3 = 0;
+E2,3 -E3,4 +E6,3 = 0;
+E3,4 -E4,13 = 0;
-E5,6 +Es,5 = 0;
+E5,6 -E6,7 -E6,11 -E6,3 = 0;
+E6,7 -E7,8 -E7,12 = 0;
+E7,8 +E11,8 -E8,14 = 0;
-E9,10 +Es,9 = 0;
+E9,10 -E10,11 = 0;
+E6,11 +E10,11 -E11,12 -E11,8 = 0;
+E7,12 +E11,12 -E12,15 = 0;
+E4,13 -E13,d = 0;
+E8,14 -E14,d = 0;
+E12,15 -E15,d = 0;

/* Variable bounds */
E1,2 <= 12;
E2,3 <= 17;
E3,4 <= 22;
E5,6 <= 12;
E6,7 <= 28;
E6,11 <= 15;
E6,3 <= 19;
E7,8 <= 23;
E7,12 <= 20;
E9,10 <= 16;
E10,11 <= 8;
E11,12 <= 15;
E11,8 <= 21;
E4,13 <= 25;
E8,14 <= 7;
E12,15 <= 6;
Es,1 <= 19;
Es,5 <= 17;
Es,9 <= 27;
E13,d <= 15;
E14,d <= 17;
E15,d <= 21;
